66
22
0 23 24 25 27 29 31 32 33 34 35 36 39 41 42 43 45 46 48 51 55 56 65
1 23 25 26 27 30 33 34 35 38 39 42 43 44 45 46 48 49 51 55 56 57 58 59 63 65
2 22 23 25 27 29 30 31 35 36 37 38 39 40 41 45 46 48 51 54 56 58 59 60 61 62 65
3 25 26 27 28 30 31 33 35 36 39 40 42 44 45 48 49 51 54 55 56 57 59 61 64
4 22 25 26 29 30 33 34 35 38 39 40 41 42 44 45 46 49 54 55 57 61 62 63 64 65
5 22 23 24 25 27 28 29 30 31 33 34 35 36 39 40 41 42 43 45 46 51 54 56 57 59 61 65
6 23 27 34 35 39 41 44 46 48 51 52 54 56 59 61 63 65
7 24 25 26 28 30 31 33 34 35 38 39 40 41 45 46 49 51 53 54 58 59 62 63 64 65
8 23 29 31 34 37 38 40 45 51 55 57 59 62 63 64 65
9 26 29 30 31 33 34 35 38 40 42 43 44 45 49 56 57 59 61 63 64 65
10 23 26 27 30 31 33 35 36 38 40 41 43 46 48 50 51 54 56 58
11 23 25 26 27 30 33 34 36 38 39 41 44 46 48 57 58 59 61 63
12 29 30 34 35 42 46 49 58 60 61 63
13 22 27 29 33 35 36 39 42 43 47 58 59 65
14 23 25 26 27 29 30 31 35 36 43 44 45 46 50 54 55 56 60
15 28 30 34 35 38 43 46 48 50 51 53 54 58 59 60 62
16 24 33 37 40 42 53 58 61 62 65
17 26 30 34 39 41 44 46 50 51 57 59
18 26 56 60 61
19 28 37 45 49 61
20 23 25 43 63
21 40 41
